11 35 5412
35 2 10541
2 10 10593
10 1 6947
1 21 6578
21 7 17005
7 13 23211
13 18 28045
18 27 12606
27 40 17541
40 19 13572
19 4 26533
4 22 23621
22 24 45980
24 5 63665
5 32 3290
32 20 24202
20 30 17244
30 37 941
37 26 14546
26 33 15458
33 12 3967
12 34 39715
34 25 30137
25 39 4093
39 31 9087
31 28 12751
28 23 15996
23 38 7449
38 29 745
29 36 16895
36 6 22446
6 9 47658
9 14 137648
14 3 30026
3 17 50824
17 16 43849
16 15 36816
15 8 26227
8 11 17581
